JOBS = 1..4;
MACHINES = 1..4;
SPEED = 2;
time = array3d(JOBS,MACHINES,1..SPEED,[228,41,41,7,208,37,175,31,190,34,80,14,197,35,58,10,31,5,200,36,231,41,162,29,199,35,55,10,45,8,168,30]);
energy = array3d(JOBS,MACHINES,1..SPEED,[10,66,66,93,12,69,17,73,14,71,44,86,13,70,55,90,73,95,13,69,9,66,19,74,13,70,57,90,63,92,18,74]);
precedence = array2d(JOBS,MACHINES,[3,0,1,2,1,2,0,3,2,3,1,0,3,2,0,1]);
ME = 1;
TE = 103;
st_old = array2d(JOBS,MACHINES,[361,0,80,330,35,225,0,379,329,401,288,0,402,330,35,162]);
SpeedScaling = array2d(JOBS,MACHINES,[2,1,1,2,1,1,2,1,1,2,2,1,2,1,1,1]);
